50, 11677
906, 906
687, 687
767, 765
905, 903
260, 258
636, 636
905, 903
873, 873
573, 573
170, 168
412, 411
994, 993
104, 102
320, 318
951, 951
450, 450
209, 207
317, 315
909, 909
336, 336
428, 426
628, 627
806, 804
493, 492
82, 81
574, 573
36, 36
95, 93
191, 189
694, 693
284, 282
691, 690
164, 162
118, 117
24, 24
706, 705
860, 858
220, 219
238, 237
13, 12
645, 645
301, 300
137, 135
647, 645
600, 600
448, 447
154, 153
639, 639
556, 555
433, 432
